%nprocshared=1
%mem=10GB
#p HF/STO-3G POP=Chelpg density=current NoSymm Charge

STEP 3 

0 1
C    4.73050900   1.28853300   0.46398300
C    3.89504100   0.03314100   0.51722700
O    2.77302000   -0.01174400   -0.02178700
N    4.40948000   -0.99663000   1.17987600
H    3.90153400   -1.74166400   1.36655200
H    5.22311400   -0.98528400   1.53414800
H    4.50486400   1.79142600   1.25052400
H    5.64831800   1.04499800   0.43832800
H    4.44740400   1.91085400   -0.25268300

  -18.253491   -38.520923   -51.104017   -0.521368
  -19.088959   -39.776314   -51.050773   0.797732
  -20.210980   -39.821200   -51.589787   -0.525844
  -18.574520   -40.806085   -50.388124   -0.885716
  -19.082466   -41.551119   -50.201448   0.364936
  -17.760886   -40.794740   -50.033852   0.363050
  -18.479136   -38.018030   -50.317476   0.132941
  -17.335682   -38.764458   -51.129672   0.143152
  -18.536596   -37.898602   -51.820683   0.131116
  -18.253491   -38.520923   -38.212017   -0.521368
  -19.088959   -39.776314   -38.158773   0.797732
  -20.210980   -39.821200   -38.697787   -0.525844
  -18.574520   -40.806085   -37.496124   -0.885716
  -19.082466   -41.551119   -37.309448   0.364936
  -17.760886   -40.794740   -37.141852   0.363050
  -18.479136   -38.018030   -37.425476   0.132941
  -17.335682   -38.764458   -38.237672   0.143152
  -18.536596   -37.898602   -38.928683   0.131116
  -18.253491   -38.520923   -25.320017   -0.521368
  -19.088959   -39.776314   -25.266773   0.797732
  -20.210980   -39.821200   -25.805787   -0.525844
  -18.574520   -40.806085   -24.604124   -0.885716
  -19.082466   -41.551119   -24.417448   0.364936
  -17.760886   -40.794740   -24.249852   0.363050
  -18.479136   -38.018030   -24.533476   0.132941
  -17.335682   -38.764458   -25.345672   0.143152
  -18.536596   -37.898602   -26.036683   0.131116
  -18.253491   -38.520923   -12.428017   -0.521368
  -19.088959   -39.776314   -12.374773   0.797732
  -20.210980   -39.821200   -12.913787   -0.525844
  -18.574520   -40.806085   -11.712124   -0.885716
  -19.082466   -41.551119   -11.525448   0.364936
  -17.760886   -40.794740   -11.357852   0.363050
  -18.479136   -38.018030   -11.641476   0.132941
  -17.335682   -38.764458   -12.453672   0.143152
  -18.536596   -37.898602   -13.144683   0.131116
  -18.253491   -38.520923   0.463983   -0.521368
  -19.088959   -39.776314   0.517227   0.797732
  -20.210980   -39.821200   -0.021787   -0.525844
  -18.574520   -40.806085   1.179876   -0.885716
  -19.082466   -41.551119   1.366552   0.364936
  -17.760886   -40.794740   1.534148   0.363050
  -18.479136   -38.018030   1.250524   0.132941
  -17.335682   -38.764458   0.438328   0.143152
  -18.536596   -37.898602   -0.252683   0.131116
  -18.253491   -38.520923   13.355983   -0.521368
  -19.088959   -39.776314   13.409227   0.797732
  -20.210980   -39.821200   12.870213   -0.525844
  -18.574520   -40.806085   14.071876   -0.885716
  -19.082466   -41.551119   14.258552   0.364936
  -17.760886   -40.794740   14.426148   0.363050
  -18.479136   -38.018030   14.142524   0.132941
  -17.335682   -38.764458   13.330328   0.143152
  -18.536596   -37.898602   12.639317   0.131116
  -18.253491   -38.520923   26.247983   -0.521368
  -19.088959   -39.776314   26.301227   0.797732
  -20.210980   -39.821200   25.762213   -0.525844
  -18.574520   -40.806085   26.963876   -0.885716
  -19.082466   -41.551119   27.150552   0.364936
  -17.760886   -40.794740   27.318148   0.363050
  -18.479136   -38.018030   27.034524   0.132941
  -17.335682   -38.764458   26.222328   0.143152
  -18.536596   -37.898602   25.531317   0.131116
  -23.999491   -28.568559   -51.104017   -0.521368
  -24.834959   -29.823950   -51.050773   0.797732
  -25.956980   -29.868836   -51.589787   -0.525844
  -24.320520   -30.853722   -50.388124   -0.885716
  -24.828466   -31.598756   -50.201448   0.364936
  -23.506886   -30.842376   -50.033852   0.363050
  -24.225136   -28.065666   -50.317476   0.132941
  -23.081682   -28.812094   -51.129672   0.143152
  -24.282596   -27.946238   -51.820683   0.131116
  -23.999491   -28.568559   -38.212017   -0.521368
  -24.834959   -29.823950   -38.158773   0.797732
  -25.956980   -29.868836   -38.697787   -0.525844
  -24.320520   -30.853722   -37.496124   -0.885716
  -24.828466   -31.598756   -37.309448   0.364936
  -23.506886   -30.842376   -37.141852   0.363050
  -24.225136   -28.065666   -37.425476   0.132941
  -23.081682   -28.812094   -38.237672   0.143152
  -24.282596   -27.946238   -38.928683   0.131116
  -23.999491   -28.568559   -25.320017   -0.521368
  -24.834959   -29.823950   -25.266773   0.797732
  -25.956980   -29.868836   -25.805787   -0.525844
  -24.320520   -30.853722   -24.604124   -0.885716
  -24.828466   -31.598756   -24.417448   0.364936
  -23.506886   -30.842376   -24.249852   0.363050
  -24.225136   -28.065666   -24.533476   0.132941
  -23.081682   -28.812094   -25.345672   0.143152
  -24.282596   -27.946238   -26.036683   0.131116
  -23.999491   -28.568559   -12.428017   -0.521368
  -24.834959   -29.823950   -12.374773   0.797732
  -25.956980   -29.868836   -12.913787   -0.525844
  -24.320520   -30.853722   -11.712124   -0.885716
  -24.828466   -31.598756   -11.525448   0.364936
  -23.506886   -30.842376   -11.357852   0.363050
  -24.225136   -28.065666   -11.641476   0.132941
  -23.081682   -28.812094   -12.453672   0.143152
  -24.282596   -27.946238   -13.144683   0.131116
  -23.999491   -28.568559   0.463983   -0.521368
  -24.834959   -29.823950   0.517227   0.797732
  -25.956980   -29.868836   -0.021787   -0.525844
  -24.320520   -30.853722   1.179876   -0.885716
  -24.828466   -31.598756   1.366552   0.364936
  -23.506886   -30.842376   1.534148   0.363050
  -24.225136   -28.065666   1.250524   0.132941
  -23.081682   -28.812094   0.438328   0.143152
  -24.282596   -27.946238   -0.252683   0.131116
  -23.999491   -28.568559   13.355983   -0.521368
  -24.834959   -29.823950   13.409227   0.797732
  -25.956980   -29.868836   12.870213   -0.525844
  -24.320520   -30.853722   14.071876   -0.885716
  -24.828466   -31.598756   14.258552   0.364936
  -23.506886   -30.842376   14.426148   0.363050
  -24.225136   -28.065666   14.142524   0.132941
  -23.081682   -28.812094   13.330328   0.143152
  -24.282596   -27.946238   12.639317   0.131116
  -23.999491   -28.568559   26.247983   -0.521368
  -24.834959   -29.823950   26.301227   0.797732
  -25.956980   -29.868836   25.762213   -0.525844
  -24.320520   -30.853722   26.963876   -0.885716
  -24.828466   -31.598756   27.150552   0.364936
  -23.506886   -30.842376   27.318148   0.363050
  -24.225136   -28.065666   27.034524   0.132941
  -23.081682   -28.812094   26.222328   0.143152
  -24.282596   -27.946238   25.531317   0.131116
  -29.745491   -18.616195   -51.104017   -0.521368
  -30.580959   -19.871587   -51.050773   0.797732
  -31.702980   -19.916472   -51.589787   -0.525844
  -30.066520   -20.901358   -50.388124   -0.885716
  -30.574466   -21.646392   -50.201448   0.364936
  -29.252886   -20.890012   -50.033852   0.363050
  -29.971136   -18.113302   -50.317476   0.132941
  -28.827682   -18.859730   -51.129672   0.143152
  -30.028596   -17.993874   -51.820683   0.131116
  -29.745491   -18.616195   -38.212017   -0.521368
  -30.580959   -19.871587   -38.158773   0.797732
  -31.702980   -19.916472   -38.697787   -0.525844
  -30.066520   -20.901358   -37.496124   -0.885716
  -30.574466   -21.646392   -37.309448   0.364936
  -29.252886   -20.890012   -37.141852   0.363050
  -29.971136   -18.113302   -37.425476   0.132941
  -28.827682   -18.859730   -38.237672   0.143152
  -30.028596   -17.993874   -38.928683   0.131116
  -29.745491   -18.616195   -25.320017   -0.521368
  -30.580959   -19.871587   -25.266773   0.797732
  -31.702980   -19.916472   -25.805787   -0.525844
  -30.066520   -20.901358   -24.604124   -0.885716
  -30.574466   -21.646392   -24.417448   0.364936
  -29.252886   -20.890012   -24.249852   0.363050
  -29.971136   -18.113302   -24.533476   0.132941
  -28.827682   -18.859730   -25.345672   0.143152
  -30.028596   -17.993874   -26.036683   0.131116
  -29.745491   -18.616195   -12.428017   -0.521368
  -30.580959   -19.871587   -12.374773   0.797732
  -31.702980   -19.916472   -12.913787   -0.525844
  -30.066520   -20.901358   -11.712124   -0.885716
  -30.574466   -21.646392   -11.525448   0.364936
  -29.252886   -20.890012   -11.357852   0.363050
  -29.971136   -18.113302   -11.641476   0.132941
  -28.827682   -18.859730   -12.453672   0.143152
  -30.028596   -17.993874   -13.144683   0.131116
  -29.745491   -18.616195   0.463983   -0.521368
  -30.580959   -19.871587   0.517227   0.797732
  -31.702980   -19.916472   -0.021787   -0.525844
  -30.066520   -20.901358   1.179876   -0.885716
  -30.574466   -21.646392   1.366552   0.364936
  -29.252886   -20.890012   1.534148   0.363050
  -29.971136   -18.113302   1.250524   0.132941
  -28.827682   -18.859730   0.438328   0.143152
  -30.028596   -17.993874   -0.252683   0.131116
  -29.745491   -18.616195   13.355983   -0.521368
  -30.580959   -19.871587   13.409227   0.797732
  -31.702980   -19.916472   12.870213   -0.525844
  -30.066520   -20.901358   14.071876   -0.885716
  -30.574466   -21.646392   14.258552   0.364936
  -29.252886   -20.890012   14.426148   0.363050
  -29.971136   -18.113302   14.142524   0.132941
  -28.827682   -18.859730   13.330328   0.143152
  -30.028596   -17.993874   12.639317   0.131116
  -29.745491   -18.616195   26.247983   -0.521368
  -30.580959   -19.871587   26.301227   0.797732
  -31.702980   -19.916472   25.762213   -0.525844
  -30.066520   -20.901358   26.963876   -0.885716
  -30.574466   -21.646392   27.150552   0.364936
  -29.252886   -20.890012   27.318148   0.363050
  -29.971136   -18.113302   27.034524   0.132941
  -28.827682   -18.859730   26.222328   0.143152
  -30.028596   -17.993874   25.531317   0.131116
  -35.491491   -8.663831   -51.104017   -0.521368
  -36.326959   -9.919223   -51.050773   0.797732
  -37.448980   -9.964108   -51.589787   -0.525844
  -35.812520   -10.948994   -50.388124   -0.885716
  -36.320466   -11.694028   -50.201448   0.364936
  -34.998886   -10.937648   -50.033852   0.363050
  -35.717136   -8.160938   -50.317476   0.132941
  -34.573682   -8.907366   -51.129672   0.143152
  -35.774596   -8.041510   -51.820683   0.131116
  -35.491491   -8.663831   -38.212017   -0.521368
  -36.326959   -9.919223   -38.158773   0.797732
  -37.448980   -9.964108   -38.697787   -0.525844
  -35.812520   -10.948994   -37.496124   -0.885716
  -36.320466   -11.694028   -37.309448   0.364936
  -34.998886   -10.937648   -37.141852   0.363050
  -35.717136   -8.160938   -37.425476   0.132941
  -34.573682   -8.907366   -38.237672   0.143152
  -35.774596   -8.041510   -38.928683   0.131116
  -35.491491   -8.663831   -25.320017   -0.521368
  -36.326959   -9.919223   -25.266773   0.797732
  -37.448980   -9.964108   -25.805787   -0.525844
  -35.812520   -10.948994   -24.604124   -0.885716
  -36.320466   -11.694028   -24.417448   0.364936
  -34.998886   -10.937648   -24.249852   0.363050
  -35.717136   -8.160938   -24.533476   0.132941
  -34.573682   -8.907366   -25.345672   0.143152
  -35.774596   -8.041510   -26.036683   0.131116
  -35.491491   -8.663831   -12.428017   -0.521368
  -36.326959   -9.919223   -12.374773   0.797732
  -37.448980   -9.964108   -12.913787   -0.525844
  -35.812520   -10.948994   -11.712124   -0.885716
  -36.320466   -11.694028   -11.525448   0.364936
  -34.998886   -10.937648   -11.357852   0.363050
  -35.717136   -8.160938   -11.641476   0.132941
  -34.573682   -8.907366   -12.453672   0.143152
  -35.774596   -8.041510   -13.144683   0.131116
  -35.491491   -8.663831   0.463983   -0.521368
  -36.326959   -9.919223   0.517227   0.797732
  -37.448980   -9.964108   -0.021787   -0.525844
  -35.812520   -10.948994   1.179876   -0.885716
  -36.320466   -11.694028   1.366552   0.364936
  -34.998886   -10.937648   1.534148   0.363050
  -35.717136   -8.160938   1.250524   0.132941
  -34.573682   -8.907366   0.438328   0.143152
  -35.774596   -8.041510   -0.252683   0.131116
  -35.491491   -8.663831   13.355983   -0.521368
  -36.326959   -9.919223   13.409227   0.797732
  -37.448980   -9.964108   12.870213   -0.525844
  -35.812520   -10.948994   14.071876   -0.885716
  -36.320466   -11.694028   14.258552   0.364936
  -34.998886   -10.937648   14.426148   0.363050
  -35.717136   -8.160938   14.142524   0.132941
  -34.573682   -8.907366   13.330328   0.143152
  -35.774596   -8.041510   12.639317   0.131116
  -35.491491   -8.663831   26.247983   -0.521368
  -36.326959   -9.919223   26.301227   0.797732
  -37.448980   -9.964108   25.762213   -0.525844
  -35.812520   -10.948994   26.963876   -0.885716
  -36.320466   -11.694028   27.150552   0.364936
  -34.998886   -10.937648   27.318148   0.363050
  -35.717136   -8.160938   27.034524   0.132941
  -34.573682   -8.907366   26.222328   0.143152
  -35.774596   -8.041510   25.531317   0.131116
  -41.237491   1.288533   -51.104017   -0.521368
  -42.072959   0.033141   -51.050773   0.797732
  -43.194980   -0.011744   -51.589787   -0.525844
  -41.558520   -0.996630   -50.388124   -0.885716
  -42.066466   -1.741664   -50.201448   0.364936
  -40.744886   -0.985284   -50.033852   0.363050
  -41.463136   1.791426   -50.317476   0.132941
  -40.319682   1.044998   -51.129672   0.143152
  -41.520596   1.910854   -51.820683   0.131116
  -41.237491   1.288533   -38.212017   -0.521368
  -42.072959   0.033141   -38.158773   0.797732
  -43.194980   -0.011744   -38.697787   -0.525844
  -41.558520   -0.996630   -37.496124   -0.885716
  -42.066466   -1.741664   -37.309448   0.364936
  -40.744886   -0.985284   -37.141852   0.363050
  -41.463136   1.791426   -37.425476   0.132941
  -40.319682   1.044998   -38.237672   0.143152
  -41.520596   1.910854   -38.928683   0.131116
  -41.237491   1.288533   -25.320017   -0.521368
  -42.072959   0.033141   -25.266773   0.797732
  -43.194980   -0.011744   -25.805787   -0.525844
  -41.558520   -0.996630   -24.604124   -0.885716
  -42.066466   -1.741664   -24.417448   0.364936
  -40.744886   -0.985284   -24.249852   0.363050
  -41.463136   1.791426   -24.533476   0.132941
  -40.319682   1.044998   -25.345672   0.143152
  -41.520596   1.910854   -26.036683   0.131116
  -41.237491   1.288533   -12.428017   -0.521368
  -42.072959   0.033141   -12.374773   0.797732
  -43.194980   -0.011744   -12.913787   -0.525844
  -41.558520   -0.996630   -11.712124   -0.885716
  -42.066466   -1.741664   -11.525448   0.364936
  -40.744886   -0.985284   -11.357852   0.363050
  -41.463136   1.791426   -11.641476   0.132941
  -40.319682   1.044998   -12.453672   0.143152
  -41.520596   1.910854   -13.144683   0.131116
  -41.237491   1.288533   0.463983   -0.521368
  -42.072959   0.033141   0.517227   0.797732
  -43.194980   -0.011744   -0.021787   -0.525844
  -41.558520   -0.996630   1.179876   -0.885716
  -42.066466   -1.741664   1.366552   0.364936
  -40.744886   -0.985284   1.534148   0.363050
  -41.463136   1.791426   1.250524   0.132941
  -40.319682   1.044998   0.438328   0.143152
  -41.520596   1.910854   -0.252683   0.131116
  -41.237491   1.288533   13.355983   -0.521368
  -42.072959   0.033141   13.409227   0.797732
  -43.194980   -0.011744   12.870213   -0.525844
  -41.558520   -0.996630   14.071876   -0.885716
  -42.066466   -1.741664   14.258552   0.364936
  -40.744886   -0.985284   14.426148   0.363050
  -41.463136   1.791426   14.142524   0.132941
  -40.319682   1.044998   13.330328   0.143152
  -41.520596   1.910854   12.639317   0.131116
  -41.237491   1.288533   26.247983   -0.521368
  -42.072959   0.033141   26.301227   0.797732
  -43.194980   -0.011744   25.762213   -0.525844
  -41.558520   -0.996630   26.963876   -0.885716
  -42.066466   -1.741664   27.150552   0.364936
  -40.744886   -0.985284   27.318148   0.363050
  -41.463136   1.791426   27.034524   0.132941
  -40.319682   1.044998   26.222328   0.143152
  -41.520596   1.910854   25.531317   0.131116
  -46.983491   11.240896   -51.104017   -0.521368
  -47.818959   9.985505   -51.050773   0.797732
  -48.940980   9.940620   -51.589787   -0.525844
  -47.304520   8.955734   -50.388124   -0.885716
  -47.812466   8.210700   -50.201448   0.364936
  -46.490886   8.967080   -50.033852   0.363050
  -47.209136   11.743789   -50.317476   0.132941
  -46.065682   10.997362   -51.129672   0.143152
  -47.266596   11.863218   -51.820683   0.131116
  -46.983491   11.240896   -38.212017   -0.521368
  -47.818959   9.985505   -38.158773   0.797732
  -48.940980   9.940620   -38.697787   -0.525844
  -47.304520   8.955734   -37.496124   -0.885716
  -47.812466   8.210700   -37.309448   0.364936
  -46.490886   8.967080   -37.141852   0.363050
  -47.209136   11.743789   -37.425476   0.132941
  -46.065682   10.997362   -38.237672   0.143152
  -47.266596   11.863218   -38.928683   0.131116
  -46.983491   11.240896   -25.320017   -0.521368
  -47.818959   9.985505   -25.266773   0.797732
  -48.940980   9.940620   -25.805787   -0.525844
  -47.304520   8.955734   -24.604124   -0.885716
  -47.812466   8.210700   -24.417448   0.364936
  -46.490886   8.967080   -24.249852   0.363050
  -47.209136   11.743789   -24.533476   0.132941
  -46.065682   10.997362   -25.345672   0.143152
  -47.266596   11.863218   -26.036683   0.131116
  -46.983491   11.240896   -12.428017   -0.521368
  -47.818959   9.985505   -12.374773   0.797732
  -48.940980   9.940620   -12.913787   -0.525844
  -47.304520   8.955734   -11.712124   -0.885716
  -47.812466   8.210700   -11.525448   0.364936
  -46.490886   8.967080   -11.357852   0.363050
  -47.209136   11.743789   -11.641476   0.132941
  -46.065682   10.997362   -12.453672   0.143152
  -47.266596   11.863218   -13.144683   0.131116
  -46.983491   11.240896   0.463983   -0.521368
  -47.818959   9.985505   0.517227   0.797732
  -48.940980   9.940620   -0.021787   -0.525844
  -47.304520   8.955734   1.179876   -0.885716
  -47.812466   8.210700   1.366552   0.364936
  -46.490886   8.967080   1.534148   0.363050
  -47.209136   11.743789   1.250524   0.132941
  -46.065682   10.997362   0.438328   0.143152
  -47.266596   11.863218   -0.252683   0.131116
  -46.983491   11.240896   13.355983   -0.521368
  -47.818959   9.985505   13.409227   0.797732
  -48.940980   9.940620   12.870213   -0.525844
  -47.304520   8.955734   14.071876   -0.885716
  -47.812466   8.210700   14.258552   0.364936
  -46.490886   8.967080   14.426148   0.363050
  -47.209136   11.743789   14.142524   0.132941
  -46.065682   10.997362   13.330328   0.143152
  -47.266596   11.863218   12.639317   0.131116
  -46.983491   11.240896   26.247983   -0.521368
  -47.818959   9.985505   26.301227   0.797732
  -48.940980   9.940620   25.762213   -0.525844
  -47.304520   8.955734   26.963876   -0.885716
  -47.812466   8.210700   27.150552   0.364936
  -46.490886   8.967080   27.318148   0.363050
  -47.209136   11.743789   27.034524   0.132941
  -46.065682   10.997362   26.222328   0.143152
  -47.266596   11.863218   25.531317   0.131116
  -52.729491   21.193260   -51.104017   -0.521368
  -53.564959   19.937869   -51.050773   0.797732
  -54.686980   19.892984   -51.589787   -0.525844
  -53.050520   18.908098   -50.388124   -0.885716
  -53.558466   18.163064   -50.201448   0.364936
  -52.236886   18.919444   -50.033852   0.363050
  -52.955136   21.696153   -50.317476   0.132941
  -51.811682   20.949726   -51.129672   0.143152
  -53.012596   21.815582   -51.820683   0.131116
  -52.729491   21.193260   -38.212017   -0.521368
  -53.564959   19.937869   -38.158773   0.797732
  -54.686980   19.892984   -38.697787   -0.525844
  -53.050520   18.908098   -37.496124   -0.885716
  -53.558466   18.163064   -37.309448   0.364936
  -52.236886   18.919444   -37.141852   0.363050
  -52.955136   21.696153   -37.425476   0.132941
  -51.811682   20.949726   -38.237672   0.143152
  -53.012596   21.815582   -38.928683   0.131116
  -52.729491   21.193260   -25.320017   -0.521368
  -53.564959   19.937869   -25.266773   0.797732
  -54.686980   19.892984   -25.805787   -0.525844
  -53.050520   18.908098   -24.604124   -0.885716
  -53.558466   18.163064   -24.417448   0.364936
  -52.236886   18.919444   -24.249852   0.363050
  -52.955136   21.696153   -24.533476   0.132941
  -51.811682   20.949726   -25.345672   0.143152
  -53.012596   21.815582   -26.036683   0.131116
  -52.729491   21.193260   -12.428017   -0.521368
  -53.564959   19.937869   -12.374773   0.797732
  -54.686980   19.892984   -12.913787   -0.525844
  -53.050520   18.908098   -11.712124   -0.885716
  -53.558466   18.163064   -11.525448   0.364936
  -52.236886   18.919444   -11.357852   0.363050
  -52.955136   21.696153   -11.641476   0.132941
  -51.811682   20.949726   -12.453672   0.143152
  -53.012596   21.815582   -13.144683   0.131116
  -52.729491   21.193260   0.463983   -0.521368
  -53.564959   19.937869   0.517227   0.797732
  -54.686980   19.892984   -0.021787   -0.525844
  -53.050520   18.908098   1.179876   -0.885716
  -53.558466   18.163064   1.366552   0.364936
  -52.236886   18.919444   1.534148   0.363050
  -52.955136   21.696153   1.250524   0.132941
  -51.811682   20.949726   0.438328   0.143152
  -53.012596   21.815582   -0.252683   0.131116
  -52.729491   21.193260   13.355983   -0.521368
  -53.564959   19.937869   13.409227   0.797732
  -54.686980   19.892984   12.870213   -0.525844
  -53.050520   18.908098   14.071876   -0.885716
  -53.558466   18.163064   14.258552   0.364936
  -52.236886   18.919444   14.426148   0.363050
  -52.955136   21.696153   14.142524   0.132941
  -51.811682   20.949726   13.330328   0.143152
  -53.012596   21.815582   12.639317   0.131116
  -52.729491   21.193260   26.247983   -0.521368
  -53.564959   19.937869   26.301227   0.797732
  -54.686980   19.892984   25.762213   -0.525844
  -53.050520   18.908098   26.963876   -0.885716
  -53.558466   18.163064   27.150552   0.364936
  -52.236886   18.919444   27.318148   0.363050
  -52.955136   21.696153   27.034524   0.132941
  -51.811682   20.949726   26.222328   0.143152
  -53.012596   21.815582   25.531317   0.131116
  -6.761491   -38.520923   -51.104017   -0.521368
  -7.596959   -39.776314   -51.050773   0.797732
  -8.718980   -39.821200   -51.589787   -0.525844
  -7.082520   -40.806085   -50.388124   -0.885716
  -7.590466   -41.551119   -50.201448   0.364936
  -6.268886   -40.794740   -50.033852   0.363050
  -6.987136   -38.018030   -50.317476   0.132941
  -5.843682   -38.764458   -51.129672   0.143152
  -7.044596   -37.898602   -51.820683   0.131116
  -6.761491   -38.520923   -38.212017   -0.521368
  -7.596959   -39.776314   -38.158773   0.797732
  -8.718980   -39.821200   -38.697787   -0.525844
  -7.082520   -40.806085   -37.496124   -0.885716
  -7.590466   -41.551119   -37.309448   0.364936
  -6.268886   -40.794740   -37.141852   0.363050
  -6.987136   -38.018030   -37.425476   0.132941
  -5.843682   -38.764458   -38.237672   0.143152
  -7.044596   -37.898602   -38.928683   0.131116
  -6.761491   -38.520923   -25.320017   -0.521368
  -7.596959   -39.776314   -25.266773   0.797732
  -8.718980   -39.821200   -25.805787   -0.525844
  -7.082520   -40.806085   -24.604124   -0.885716
  -7.590466   -41.551119   -24.417448   0.364936
  -6.268886   -40.794740   -24.249852   0.363050
  -6.987136   -38.018030   -24.533476   0.132941
  -5.843682   -38.764458   -25.345672   0.143152
  -7.044596   -37.898602   -26.036683   0.131116
  -6.761491   -38.520923   -12.428017   -0.521368
  -7.596959   -39.776314   -12.374773   0.797732
  -8.718980   -39.821200   -12.913787   -0.525844
  -7.082520   -40.806085   -11.712124   -0.885716
  -7.590466   -41.551119   -11.525448   0.364936
  -6.268886   -40.794740   -11.357852   0.363050
  -6.987136   -38.018030   -11.641476   0.132941
  -5.843682   -38.764458   -12.453672   0.143152
  -7.044596   -37.898602   -13.144683   0.131116
  -6.761491   -38.520923   0.463983   -0.521368
  -7.596959   -39.776314   0.517227   0.797732
  -8.718980   -39.821200   -0.021787   -0.525844
  -7.082520   -40.806085   1.179876   -0.885716
  -7.590466   -41.551119   1.366552   0.364936
  -6.268886   -40.794740   1.534148   0.363050
  -6.987136   -38.018030   1.250524   0.132941
  -5.843682   -38.764458   0.438328   0.143152
  -7.044596   -37.898602   -0.252683   0.131116
  -6.761491   -38.520923   13.355983   -0.521368
  -7.596959   -39.776314   13.409227   0.797732
  -8.718980   -39.821200   12.870213   -0.525844
  -7.082520   -40.806085   14.071876   -0.885716
  -7.590466   -41.551119   14.258552   0.364936
  -6.268886   -40.794740   14.426148   0.363050
  -6.987136   -38.018030   14.142524   0.132941
  -5.843682   -38.764458   13.330328   0.143152
  -7.044596   -37.898602   12.639317   0.131116
  -6.761491   -38.520923   26.247983   -0.521368
  -7.596959   -39.776314   26.301227   0.797732
  -8.718980   -39.821200   25.762213   -0.525844
  -7.082520   -40.806085   26.963876   -0.885716
  -7.590466   -41.551119   27.150552   0.364936
  -6.268886   -40.794740   27.318148   0.363050
  -6.987136   -38.018030   27.034524   0.132941
  -5.843682   -38.764458   26.222328   0.143152
  -7.044596   -37.898602   25.531317   0.131116
  -12.507491   -28.568559   -51.104017   -0.521368
  -13.342959   -29.823950   -51.050773   0.797732
  -14.464980   -29.868836   -51.589787   -0.525844
  -12.828520   -30.853722   -50.388124   -0.885716
  -13.336466   -31.598756   -50.201448   0.364936
  -12.014886   -30.842376   -50.033852   0.363050
  -12.733136   -28.065666   -50.317476   0.132941
  -11.589682   -28.812094   -51.129672   0.143152
  -12.790596   -27.946238   -51.820683   0.131116
  -12.507491   -28.568559   -38.212017   -0.521368
  -13.342959   -29.823950   -38.158773   0.797732
  -14.464980   -29.868836   -38.697787   -0.525844
  -12.828520   -30.853722   -37.496124   -0.885716
  -13.336466   -31.598756   -37.309448   0.364936
  -12.014886   -30.842376   -37.141852   0.363050
  -12.733136   -28.065666   -37.425476   0.132941
  -11.589682   -28.812094   -38.237672   0.143152
  -12.790596   -27.946238   -38.928683   0.131116
  -12.507491   -28.568559   -25.320017   -0.521368
  -13.342959   -29.823950   -25.266773   0.797732
  -14.464980   -29.868836   -25.805787   -0.525844
  -12.828520   -30.853722   -24.604124   -0.885716
  -13.336466   -31.598756   -24.417448   0.364936
  -12.014886   -30.842376   -24.249852   0.363050
  -12.733136   -28.065666   -24.533476   0.132941
  -11.589682   -28.812094   -25.345672   0.143152
  -12.790596   -27.946238   -26.036683   0.131116
  -12.507491   -28.568559   -12.428017   -0.521368
  -13.342959   -29.823950   -12.374773   0.797732
  -14.464980   -29.868836   -12.913787   -0.525844
  -12.828520   -30.853722   -11.712124   -0.885716
  -13.336466   -31.598756   -11.525448   0.364936
  -12.014886   -30.842376   -11.357852   0.363050
  -12.733136   -28.065666   -11.641476   0.132941
  -11.589682   -28.812094   -12.453672   0.143152
  -12.790596   -27.946238   -13.144683   0.131116
  -12.507491   -28.568559   0.463983   -0.521368
  -13.342959   -29.823950   0.517227   0.797732
  -14.464980   -29.868836   -0.021787   -0.525844
  -12.828520   -30.853722   1.179876   -0.885716
  -13.336466   -31.598756   1.366552   0.364936
  -12.014886   -30.842376   1.534148   0.363050
  -12.733136   -28.065666   1.250524   0.132941
  -11.589682   -28.812094   0.438328   0.143152
  -12.790596   -27.946238   -0.252683   0.131116
  -12.507491   -28.568559   13.355983   -0.521368
  -13.342959   -29.823950   13.409227   0.797732
  -14.464980   -29.868836   12.870213   -0.525844
  -12.828520   -30.853722   14.071876   -0.885716
  -13.336466   -31.598756   14.258552   0.364936
  -12.014886   -30.842376   14.426148   0.363050
  -12.733136   -28.065666   14.142524   0.132941
  -11.589682   -28.812094   13.330328   0.143152
  -12.790596   -27.946238   12.639317   0.131116
  -12.507491   -28.568559   26.247983   -0.521368
  -13.342959   -29.823950   26.301227   0.797732
  -14.464980   -29.868836   25.762213   -0.525844
  -12.828520   -30.853722   26.963876   -0.885716
  -13.336466   -31.598756   27.150552   0.364936
  -12.014886   -30.842376   27.318148   0.363050
  -12.733136   -28.065666   27.034524   0.132941
  -11.589682   -28.812094   26.222328   0.143152
  -12.790596   -27.946238   25.531317   0.131116
  -18.253491   -18.616195   -51.104017   -0.521368
  -19.088959   -19.871587   -51.050773   0.797732
  -20.210980   -19.916472   -51.589787   -0.525844
  -18.574520   -20.901358   -50.388124   -0.885716
  -19.082466   -21.646392   -50.201448   0.364936
  -17.760886   -20.890012   -50.033852   0.363050
  -18.479136   -18.113302   -50.317476   0.132941
  -17.335682   -18.859730   -51.129672   0.143152
  -18.536596   -17.993874   -51.820683   0.131116
  -18.253491   -18.616195   -38.212017   -0.521368
  -19.088959   -19.871587   -38.158773   0.797732
  -20.210980   -19.916472   -38.697787   -0.525844
  -18.574520   -20.901358   -37.496124   -0.885716
  -19.082466   -21.646392   -37.309448   0.364936
  -17.760886   -20.890012   -37.141852   0.363050
  -18.479136   -18.113302   -37.425476   0.132941
  -17.335682   -18.859730   -38.237672   0.143152
  -18.536596   -17.993874   -38.928683   0.131116
  -18.253491   -18.616195   -25.320017   -0.521368
  -19.088959   -19.871587   -25.266773   0.797732
  -20.210980   -19.916472   -25.805787   -0.525844
  -18.574520   -20.901358   -24.604124   -0.885716
  -19.082466   -21.646392   -24.417448   0.364936
  -17.760886   -20.890012   -24.249852   0.363050
  -18.479136   -18.113302   -24.533476   0.132941
  -17.335682   -18.859730   -25.345672   0.143152
  -18.536596   -17.993874   -26.036683   0.131116
  -18.253491   -18.616195   -12.428017   -0.521368
  -19.088959   -19.871587   -12.374773   0.797732
  -20.210980   -19.916472   -12.913787   -0.525844
  -18.574520   -20.901358   -11.712124   -0.885716
  -19.082466   -21.646392   -11.525448   0.364936